p cnf 225 1
225 0
w 1 0.886171
w 2 1 0.08518
w 2 -1 0.853906
w 3 2 1
w 3 -2 0
w 4 3 1
w 4 -3 0
w 5 4 1
w 5 -4 0
w 6 5 0
w 6 -5 1
w 7 6 0.171182
w 7 -6 0.641294
w 8 7 1
w 8 -7 0
w 9 8 1
w 9 -8 0
w 10 9 0
w 10 -9 1
w 11 10 0
w 11 -10 1
w 12 11 1
w 12 -11 0
w 13 12 0
w 13 -12 1
w 14 13 1
w 14 -13 0
w 15 14 0
w 15 -14 1
w 16 1 0.158814
w 16 -1 0.324622
w 17 16 2 0
w 17 16 -2 0
w 17 -16 2 1
w 17 -16 -2 1
w 18 17 3 0
w 18 17 -3 1
w 18 -17 3 1
w 18 -17 -3 1
w 19 18 4 1
w 19 18 -4 0
w 19 -18 4 0
w 19 -18 -4 1
w 20 19 5 0
w 20 19 -5 1
w 20 -19 5 1
w 20 -19 -5 1
w 21 20 6 1
w 21 20 -6 0
w 21 -20 6 0
w 21 -20 -6 0
w 22 21 7 0
w 22 21 -7 1
w 22 -21 7 0
w 22 -21 -7 1
w 23 22 8 0
w 23 22 -8 1
w 23 -22 8 0
w 23 -22 -8 0
w 24 23 9 0
w 24 23 -9 1
w 24 -23 9 1
w 24 -23 -9 0
w 25 24 10 0
w 25 24 -10 0
w 25 -24 10 0
w 25 -24 -10 1
w 26 25 11 1
w 26 25 -11 0
w 26 -25 11 1
w 26 -25 -11 1
w 27 26 12 0
w 27 26 -12 1
w 27 -26 12 0
w 27 -26 -12 1
w 28 27 13 1
w 28 27 -13 0
w 28 -27 13 0
w 28 -27 -13 0
w 29 28 14 0.342806
w 29 28 -14 0.00413775
w 29 -28 14 0.626524
w 29 -28 -14 0.750001
w 30 29 15 0
w 30 29 -15 0
w 30 -29 15 1
w 30 -29 -15 0
w 31 16 1
w 31 -16 0
w 32 31 17 0.395109
w 32 31 -17 0.86312
w 32 -31 17 0.402111
w 32 -31 -17 0.711017
w 33 32 18 0
w 33 32 -18 0
w 33 -32 18 1
w 33 -32 -18 0
w 34 33 19 0.78356
w 34 33 -19 0.740991
w 34 -33 19 0.32946
w 34 -33 -19 0.980696
w 35 34 20 0
w 35 34 -20 0
w 35 -34 20 1
w 35 -34 -20 1
w 36 35 21 1
w 36 35 -21 0
w 36 -35 21 0
w 36 -35 -21 1
w 37 36 22 0.568186
w 37 36 -22 0.541715
w 37 -36 22 0.551273
w 37 -36 -22 0.330368
w 38 37 23 1
w 38 37 -23 1
w 38 -37 23 0
w 38 -37 -23 0
w 39 38 24 0
w 39 38 -24 0
w 39 -38 24 1
w 39 -38 -24 1
w 40 39 25 1
w 40 39 -25 0
w 40 -39 25 0
w 40 -39 -25 1
w 41 40 26 0
w 41 40 -26 1
w 41 -40 26 0
w 41 -40 -26 1
w 42 41 27 1
w 42 41 -27 0
w 42 -41 27 1
w 42 -41 -27 1
w 43 42 28 0
w 43 42 -28 1
w 43 -42 28 1
w 43 -42 -28 0
w 44 43 29 0
w 44 43 -29 0
w 44 -43 29 1
w 44 -43 -29 0
w 45 44 30 1
w 45 44 -30 1
w 45 -44 30 0
w 45 -44 -30 0
w 46 31 1
w 46 -31 0
w 47 46 32 0
w 47 46 -32 0
w 47 -46 32 0
w 47 -46 -32 1
w 48 47 33 0.0599831
w 48 47 -33 0.463823
w 48 -47 33 0.120093
w 48 -47 -33 0.51544
w 49 48 34 1
w 49 48 -34 1
w 49 -48 34 0
w 49 -48 -34 0
w 50 49 35 0
w 50 49 -35 1
w 50 -49 35 1
w 50 -49 -35 1
w 51 50 36 1
w 51 50 -36 1
w 51 -50 36 0
w 51 -50 -36 0
w 52 51 37 0
w 52 51 -37 1
w 52 -51 37 0
w 52 -51 -37 0
w 53 52 38 0
w 53 52 -38 1
w 53 -52 38 1
w 53 -52 -38 1
w 54 53 39 0
w 54 53 -39 0
w 54 -53 39 0
w 54 -53 -39 1
w 55 54 40 0.947344
w 55 54 -40 0.0583739
w 55 -54 40 0.286898
w 55 -54 -40 0.613681
w 56 55 41 1
w 56 55 -41 0
w 56 -55 41 1
w 56 -55 -41 0
w 57 56 42 0
w 57 56 -42 1
w 57 -56 42 0
w 57 -56 -42 1
w 58 57 43 0.640916
w 58 57 -43 0.7782
w 58 -57 43 0.722088
w 58 -57 -43 0.990716
w 59 58 44 0
w 59 58 -44 1
w 59 -58 44 0
w 59 -58 -44 1
w 60 59 45 0
w 60 59 -45 0
w 60 -59 45 1
w 60 -59 -45 0
w 61 46 0
w 61 -46 1
w 62 61 47 0.80742
w 62 61 -47 0.872739
w 62 -61 47 0.486699
w 62 -61 -47 0.114395
w 63 62 48 1
w 63 62 -48 1
w 63 -62 48 0
w 63 -62 -48 1
w 64 63 49 0.184018
w 64 63 -49 0.621441
w 64 -63 49 0.535986
w 64 -63 -49 0.121951
w 65 64 50 1
w 65 64 -50 0
w 65 -64 50 0
w 65 -64 -50 0
w 66 65 51 0
w 66 65 -51 1
w 66 -65 51 0
w 66 -65 -51 0
w 67 66 52 1
w 67 66 -52 1
w 67 -66 52 0
w 67 -66 -52 0
w 68 67 53 0.216288
w 68 67 -53 0.452472
w 68 -67 53 0.372864
w 68 -67 -53 0.330683
w 69 68 54 0
w 69 68 -54 0
w 69 -68 54 0
w 69 -68 -54 1
w 70 69 55 1
w 70 69 -55 0
w 70 -69 55 1
w 70 -69 -55 1
w 71 70 56 0.26018
w 71 70 -56 0.58231
w 71 -70 56 0.226477
w 71 -70 -56 0.96936
w 72 71 57 0.149147
w 72 71 -57 0.781693
w 72 -71 57 0.0297962
w 72 -71 -57 0.480275
w 73 72 58 0.689618
w 73 72 -58 0.474168
w 73 -72 58 0.88231
w 73 -72 -58 0.0984857
w 74 73 59 1
w 74 73 -59 1
w 74 -73 59 0
w 74 -73 -59 0
w 75 74 60 0
w 75 74 -60 1
w 75 -74 60 0
w 75 -74 -60 0
w 76 61 1
w 76 -61 0
w 77 76 62 0
w 77 76 -62 0
w 77 -76 62 1
w 77 -76 -62 0
w 78 77 63 0.597362
w 78 77 -63 0.877613
w 78 -77 63 0.7435
w 78 -77 -63 0.746509
w 79 78 64 1
w 79 78 -64 0
w 79 -78 64 0
w 79 -78 -64 1
w 80 79 65 1
w 80 79 -65 1
w 80 -79 65 1
w 80 -79 -65 0
w 81 80 66 0.261226
w 81 80 -66 0.320591
w 81 -80 66 0.521631
w 81 -80 -66 0.778748
w 82 81 67 0.813704
w 82 81 -67 0.728573
w 82 -81 67 0.603854
w 82 -81 -67 0.515783
w 83 82 68 1
w 83 82 -68 1
w 83 -82 68 0
w 83 -82 -68 0
w 84 83 69 1
w 84 83 -69 0
w 84 -83 69 1
w 84 -83 -69 0
w 85 84 70 1
w 85 84 -70 1
w 85 -84 70 0
w 85 -84 -70 1
w 86 85 71 0
w 86 85 -71 0
w 86 -85 71 1
w 86 -85 -71 1
w 87 86 72 1
w 87 86 -72 0
w 87 -86 72 0
w 87 -86 -72 1
w 88 87 73 1
w 88 87 -73 1
w 88 -87 73 0
w 88 -87 -73 0
w 89 88 74 0.461947
w 89 88 -74 0.570734
w 89 -88 74 0.918125
w 89 -88 -74 0.0610851
w 90 89 75 0.990235
w 90 89 -75 0.546951
w 90 -89 75 0.912538
w 90 -89 -75 0.939958
w 91 76 0.62863
w 91 -76 0.548988
w 92 91 77 0.571506
w 92 91 -77 0.686487
w 92 -91 77 0.244557
w 92 -91 -77 0.215334
w 93 92 78 1
w 93 92 -78 0
w 93 -92 78 0
w 93 -92 -78 1
w 94 93 79 0
w 94 93 -79 0
w 94 -93 79 1
w 94 -93 -79 1
w 95 94 80 0.879807
w 95 94 -80 0.545367
w 95 -94 80 0.592216
w 95 -94 -80 0.341754
w 96 95 81 0
w 96 95 -81 1
w 96 -95 81 1
w 96 -95 -81 0
w 97 96 82 0.971595
w 97 96 -82 0.440534
w 97 -96 82 0.726108
w 97 -96 -82 0.600225
w 98 97 83 0.505088
w 98 97 -83 0.171731
w 98 -97 83 0.676009
w 98 -97 -83 0.749645
w 99 98 84 0
w 99 98 -84 0
w 99 -98 84 1
w 99 -98 -84 0
w 100 99 85 1
w 100 99 -85 0
w 100 -99 85 1
w 100 -99 -85 0
w 101 100 86 0.633274
w 101 100 -86 0.867389
w 101 -100 86 0.404836
w 101 -100 -86 0.225491
w 102 101 87 1
w 102 101 -87 0
w 102 -101 87 0
w 102 -101 -87 0
w 103 102 88 1
w 103 102 -88 1
w 103 -102 88 0
w 103 -102 -88 0
w 104 103 89 1
w 104 103 -89 0
w 104 -103 89 1
w 104 -103 -89 1
w 105 104 90 1
w 105 104 -90 1
w 105 -104 90 1
w 105 -104 -90 0
w 106 91 0
w 106 -91 1
w 107 106 92 0.00982503
w 107 106 -92 0.55498
w 107 -106 92 0.97428
w 107 -106 -92 0.869293
w 108 107 93 0
w 108 107 -93 0
w 108 -107 93 1
w 108 -107 -93 0
w 109 108 94 0.149577
w 109 108 -94 0.662795
w 109 -108 94 0.375062
w 109 -108 -94 0.385984
w 110 109 95 0
w 110 109 -95 0
w 110 -109 95 1
w 110 -109 -95 1
w 111 110 96 0
w 111 110 -96 0
w 111 -110 96 0
w 111 -110 -96 1
w 112 111 97 0
w 112 111 -97 0
w 112 -111 97 1
w 112 -111 -97 0
w 113 112 98 0.461261
w 113 112 -98 0.726459
w 113 -112 98 0.785295
w 113 -112 -98 0.330555
w 114 113 99 0.626965
w 114 113 -99 0.604684
w 114 -113 99 0.328459
w 114 -113 -99 0.677778
w 115 114 100 0
w 115 114 -100 1
w 115 -114 100 0
w 115 -114 -100 0
w 116 115 101 0
w 116 115 -101 0
w 116 -115 101 0
w 116 -115 -101 1
w 117 116 102 0
w 117 116 -102 1
w 117 -116 102 0
w 117 -116 -102 1
w 118 117 103 0
w 118 117 -103 1
w 118 -117 103 1
w 118 -117 -103 0
w 119 118 104 0.929902
w 119 118 -104 0.966006
w 119 -118 104 0.540797
w 119 -118 -104 0.715197
w 120 119 105 1
w 120 119 -105 0
w 120 -119 105 1
w 120 -119 -105 1
w 121 106 0
w 121 -106 1
w 122 121 107 0
w 122 121 -107 0
w 122 -121 107 1
w 122 -121 -107 1
w 123 122 108 0.0529715
w 123 122 -108 0.00323956
w 123 -122 108 0.557204
w 123 -122 -108 0.709307
w 124 123 109 1
w 124 123 -109 1
w 124 -123 109 0
w 124 -123 -109 0
w 125 124 110 1
w 125 124 -110 1
w 125 -124 110 0
w 125 -124 -110 1
w 126 125 111 0.615274
w 126 125 -111 0.797705
w 126 -125 111 0.258123
w 126 -125 -111 0.0707838
w 127 126 112 1
w 127 126 -112 0
w 127 -126 112 0
w 127 -126 -112 0
w 128 127 113 1
w 128 127 -113 1
w 128 -127 113 0
w 128 -127 -113 1
w 129 128 114 0
w 129 128 -114 1
w 129 -128 114 0
w 129 -128 -114 1
w 130 129 115 1
w 130 129 -115 1
w 130 -129 115 0
w 130 -129 -115 0
w 131 130 116 0
w 131 130 -116 1
w 131 -130 116 1
w 131 -130 -116 1
w 132 131 117 0
w 132 131 -117 1
w 132 -131 117 1
w 132 -131 -117 0
w 133 132 118 1
w 133 132 -118 0
w 133 -132 118 0
w 133 -132 -118 1
w 134 133 119 1
w 134 133 -119 1
w 134 -133 119 0
w 134 -133 -119 0
w 135 134 120 0.391504
w 135 134 -120 0.488613
w 135 -134 120 0.988518
w 135 -134 -120 0.226958
w 136 121 1
w 136 -121 0
w 137 136 122 1
w 137 136 -122 1
w 137 -136 122 1
w 137 -136 -122 0
w 138 137 123 0
w 138 137 -123 1
w 138 -137 123 0
w 138 -137 -123 0
w 139 138 124 0
w 139 138 -124 1
w 139 -138 124 0
w 139 -138 -124 1
w 140 139 125 0
w 140 139 -125 1
w 140 -139 125 0
w 140 -139 -125 0
w 141 140 126 1
w 141 140 -126 0
w 141 -140 126 1
w 141 -140 -126 1
w 142 141 127 0
w 142 141 -127 1
w 142 -141 127 0
w 142 -141 -127 0
w 143 142 128 0.621978
w 143 142 -128 0.660287
w 143 -142 128 0.284248
w 143 -142 -128 0.0145432
w 144 143 129 1
w 144 143 -129 0
w 144 -143 129 1
w 144 -143 -129 1
w 145 144 130 0.708001
w 145 144 -130 0.0940577
w 145 -144 130 0.832943
w 145 -144 -130 0.617202
w 146 145 131 1
w 146 145 -131 0
w 146 -145 131 0
w 146 -145 -131 1
w 147 146 132 0.856796
w 147 146 -132 0.562803
w 147 -146 132 0.207762
w 147 -146 -132 0.188139
w 148 147 133 1
w 148 147 -133 0
w 148 -147 133 0
w 148 -147 -133 0
w 149 148 134 1
w 149 148 -134 0
w 149 -148 134 1
w 149 -148 -134 0
w 150 149 135 0.333368
w 150 149 -135 0.696356
w 150 -149 135 0.400074
w 150 -149 -135 0.0949095
w 151 136 1
w 151 -136 0
w 152 151 137 1
w 152 151 -137 0
w 152 -151 137 0
w 152 -151 -137 1
w 153 152 138 1
w 153 152 -138 0
w 153 -152 138 0
w 153 -152 -138 0
w 154 153 139 0
w 154 153 -139 0
w 154 -153 139 0
w 154 -153 -139 1
w 155 154 140 0
w 155 154 -140 1
w 155 -154 140 1
w 155 -154 -140 1
w 156 155 141 1
w 156 155 -141 0
w 156 -155 141 1
w 156 -155 -141 1
w 157 156 142 0.402378
w 157 156 -142 0.266815
w 157 -156 142 0.926401
w 157 -156 -142 0.591345
w 158 157 143 0
w 158 157 -143 1
w 158 -157 143 0
w 158 -157 -143 0
w 159 158 144 1
w 159 158 -144 1
w 159 -158 144 0
w 159 -158 -144 0
w 160 159 145 0
w 160 159 -145 0
w 160 -159 145 0
w 160 -159 -145 1
w 161 160 146 0
w 161 160 -146 0
w 161 -160 146 1
w 161 -160 -146 0
w 162 161 147 0
w 162 161 -147 1
w 162 -161 147 0
w 162 -161 -147 1
w 163 162 148 0
w 163 162 -148 1
w 163 -162 148 1
w 163 -162 -148 0
w 164 163 149 0
w 164 163 -149 0
w 164 -163 149 1
w 164 -163 -149 1
w 165 164 150 0
w 165 164 -150 0
w 165 -164 150 1
w 165 -164 -150 0
w 166 151 1
w 166 -151 0
w 167 166 152 0
w 167 166 -152 1
w 167 -166 152 0
w 167 -166 -152 0
w 168 167 153 0
w 168 167 -153 1
w 168 -167 153 0
w 168 -167 -153 1
w 169 168 154 1
w 169 168 -154 1
w 169 -168 154 0
w 169 -168 -154 0
w 170 169 155 0.0544251
w 170 169 -155 0.794626
w 170 -169 155 0.460867
w 170 -169 -155 0.28832
w 171 170 156 0.692565
w 171 170 -156 0.037089
w 171 -170 156 0.86388
w 171 -170 -156 0.803625
w 172 171 157 1
w 172 171 -157 1
w 172 -171 157 0
w 172 -171 -157 1
w 173 172 158 1
w 173 172 -158 0
w 173 -172 158 0
w 173 -172 -158 1
w 174 173 159 0.823386
w 174 173 -159 0.21904
w 174 -173 159 0.791165
w 174 -173 -159 0.215322
w 175 174 160 1
w 175 174 -160 0
w 175 -174 160 0
w 175 -174 -160 1
w 176 175 161 1
w 176 175 -161 1
w 176 -175 161 1
w 176 -175 -161 0
w 177 176 162 0
w 177 176 -162 0
w 177 -176 162 1
w 177 -176 -162 1
w 178 177 163 0
w 178 177 -163 0
w 178 -177 163 0
w 178 -177 -163 1
w 179 178 164 0
w 179 178 -164 1
w 179 -178 164 1
w 179 -178 -164 1
w 180 179 165 1
w 180 179 -165 0
w 180 -179 165 1
w 180 -179 -165 1
w 181 166 0
w 181 -166 1
w 182 181 167 0
w 182 181 -167 0
w 182 -181 167 0
w 182 -181 -167 1
w 183 182 168 0.713488
w 183 182 -168 0.106459
w 183 -182 168 0.325666
w 183 -182 -168 0.895942
w 184 183 169 0.60612
w 184 183 -169 0.446078
w 184 -183 169 0.412885
w 184 -183 -169 0.792244
w 185 184 170 1
w 185 184 -170 1
w 185 -184 170 0
w 185 -184 -170 1
w 186 185 171 1
w 186 185 -171 0
w 186 -185 171 0
w 186 -185 -171 1
w 187 186 172 0
w 187 186 -172 1
w 187 -186 172 0
w 187 -186 -172 1
w 188 187 173 0.786429
w 188 187 -173 0.704404
w 188 -187 173 0.0590802
w 188 -187 -173 0.354552
w 189 188 174 0.907917
w 189 188 -174 0.0680396
w 189 -188 174 0.934299
w 189 -188 -174 0.233583
w 190 189 175 0.887662
w 190 189 -175 0.839702
w 190 -189 175 0.41006
w 190 -189 -175 0.300547
w 191 190 176 0
w 191 190 -176 1
w 191 -190 176 1
w 191 -190 -176 0
w 192 191 177 1
w 192 191 -177 0
w 192 -191 177 0
w 192 -191 -177 0
w 193 192 178 1
w 193 192 -178 0
w 193 -192 178 0
w 193 -192 -178 0
w 194 193 179 0
w 194 193 -179 0
w 194 -193 179 0
w 194 -193 -179 1
w 195 194 180 1
w 195 194 -180 1
w 195 -194 180 0
w 195 -194 -180 0
w 196 181 0
w 196 -181 1
w 197 196 182 0
w 197 196 -182 1
w 197 -196 182 0
w 197 -196 -182 1
w 198 197 183 0.989137
w 198 197 -183 0.515278
w 198 -197 183 0.908598
w 198 -197 -183 0.0821398
w 199 198 184 0.701893
w 199 198 -184 0.129848
w 199 -198 184 0.346403
w 199 -198 -184 0.764093
w 200 199 185 1
w 200 199 -185 0
w 200 -199 185 0
w 200 -199 -185 1
w 201 200 186 1
w 201 200 -186 1
w 201 -200 186 0
w 201 -200 -186 0
w 202 201 187 0.847954
w 202 201 -187 0.839736
w 202 -201 187 0.527638
w 202 -201 -187 0.0473267
w 203 202 188 1
w 203 202 -188 1
w 203 -202 188 1
w 203 -202 -188 0
w 204 203 189 0
w 204 203 -189 1
w 204 -203 189 0
w 204 -203 -189 1
w 205 204 190 0
w 205 204 -190 1
w 205 -204 190 0
w 205 -204 -190 0
w 206 205 191 1
w 206 205 -191 1
w 206 -205 191 0
w 206 -205 -191 1
w 207 206 192 0.287877
w 207 206 -192 0.718445
w 207 -206 192 0.23572
w 207 -206 -192 0.0681524
w 208 207 193 0
w 208 207 -193 0
w 208 -207 193 0
w 208 -207 -193 1
w 209 208 194 0
w 209 208 -194 0
w 209 -208 194 1
w 209 -208 -194 1
w 210 209 195 1
w 210 209 -195 0
w 210 -209 195 0
w 210 -209 -195 1
w 211 196 0
w 211 -196 1
w 212 211 197 1
w 212 211 -197 1
w 212 -211 197 0
w 212 -211 -197 0
w 213 212 198 1
w 213 212 -198 0
w 213 -212 198 1
w 213 -212 -198 0
w 214 213 199 0.370145
w 214 213 -199 0.376272
w 214 -213 199 0.922795
w 214 -213 -199 0.936544
w 215 214 200 1
w 215 214 -200 0
w 215 -214 200 0
w 215 -214 -200 1
w 216 215 201 0
w 216 215 -201 0
w 216 -215 201 1
w 216 -215 -201 1
w 217 216 202 1
w 217 216 -202 1
w 217 -216 202 0
w 217 -216 -202 1
w 218 217 203 0.759906
w 218 217 -203 0.131281
w 218 -217 203 0.391168
w 218 -217 -203 0.197299
w 219 218 204 1
w 219 218 -204 1
w 219 -218 204 1
w 219 -218 -204 0
w 220 219 205 1
w 220 219 -205 1
w 220 -219 205 1
w 220 -219 -205 0
w 221 220 206 0.414292
w 221 220 -206 0.269855
w 221 -220 206 0.369324
w 221 -220 -206 0.117043
w 222 221 207 0
w 222 221 -207 1
w 222 -221 207 0
w 222 -221 -207 0
w 223 222 208 0
w 223 222 -208 1
w 223 -222 208 1
w 223 -222 -208 0
w 224 223 209 0.603217
w 224 223 -209 0.477275
w 224 -223 209 0.0158119
w 224 -223 -209 0.994385
w 225 224 210 0
w 225 224 -210 1
w 225 -224 210 0
w 225 -224 -210 1